CPLEX 12.6.2.0: mipgap=0.01
mipdisplay=3
MIP Presolve eliminated 40 rows and 20 columns.
Reduced MIP has 1340 rows, 1640 columns, and 5220 nonzeros.
Reduced MIP has 820 binaries, 0 generals, 0 SOSs, and 0 indicators.
Found incumbent of value 600.000000 after 0.05 sec. (28.57 ticks)
Probing time = 0.00 sec. (2.05 ticks)
MIP Presolve modified 1200 coefficients.
Reduced MIP has 1340 rows, 1640 columns, and 5220 nonzeros.
Reduced MIP has 820 binaries, 0 generals, 0 SOSs, and 0 indicators.
Probing time = 0.00 sec. (1.91 ticks)
Clique table members: 420.
MIP emphasis: balance optimality and feasibility.
MIP search method: dynamic search.
Parallel mode: deterministic, using up to 4 threads.
Root relaxation solution time = 0.02 sec. (11.81 ticks)

        Nodes                                         Cuts/
   Node  Left     Objective  IInf  Best Integer    Best Bound    ItCnt     Gap

*     0+    0                          600.0000        0.0000           100.00%
Found incumbent of value 600.000000 after 0.08 sec. (49.93 ticks)
*     0+    0                          200.0000        0.0000           100.00%
Found incumbent of value 200.000000 after 0.08 sec. (49.94 ticks)
*     0+    0                           20.0000        0.0000           100.00%
Found incumbent of value 20.000000 after 0.08 sec. (49.94 ticks)
      0     0        0.0000   218       20.0000        0.0000      208  100.00%
      0     0        0.0000   185       20.0000      Cuts: 60      253  100.00%
      0     0        0.0000   140       20.0000      Cuts: 19      342  100.00%
      0     0        0.0000   131       20.0000      Cuts: 36      361  100.00%
      0     0        0.0000   131       20.0000       Cuts: 6      367  100.00%
      0     0        0.0000   131       20.0000      Fract: 1      368  100.00%
      0     2        0.0000   131       20.0000        0.0000      368  100.00%
Elapsed time = 0.52 sec. (315.48 ticks, tree = 0.00 MB)
    760   750        2.1605   254       20.0000        0.0100    10293   99.95%
                                                   Covers: 14                  
    764   754        1.1845   213       20.0000        0.0100    10313   99.95%
    768   758        2.1605   254       20.0000        0.0100    10455   99.95%
    784   774       16.2750    68       20.0000        0.0100    10514   99.95%
    786   776        1.6200   378       20.0000        0.0100    10516   99.95%
    787   777       16.2929    67       20.0000        0.0100    10517   99.95%
    789   779        2.1200   376       20.0000        0.0100    10531   99.95%
    790   780       16.3167    66       20.0000        0.0100    10532   99.95%
    792   782        2.1200   376       20.0000        0.0100    10546   99.95%
   1208  1157        0.0000   207       20.0000        0.0100    20435   99.95%
Elapsed time = 2.16 sec. (1428.77 ticks, tree = 1.20 MB)
   1767  1280        1.8834   340       20.0000        0.0500    28488   99.75%
   1768  1280        1.6284   226       20.0000        0.0500    28489   99.75%
   1769  1281        4.9790   321       20.0000        0.0500    28565   99.75%
   1770  1282        4.9722   216       20.0000        0.0500    28566   99.75%
   1771  1282        1.9562   338       20.0000        0.0500    28567   99.75%
   1772  1283        1.6284   225       20.0000        0.0500    28568   99.75%
   1773  1284        4.9790   303       20.0000        0.0500    28683   99.75%
   1774  1284        5.8813   214       20.0000        0.0500    28687   99.75%
   1775  1284        2.1367   337       20.0000        0.0500    28688   99.75%
   1776  1285        1.6786   323       20.0000        0.0500    28956   99.75%
Elapsed time = 3.22 sec. (2395.49 ticks, tree = 1.39 MB)
   4566  3288        0.1640   384       20.0000        0.0500    63037   99.75%
   4570  3292        0.1670   383       20.0000        0.0500    63041   99.75%
   4574  3296        0.1702   382       20.0000        0.0500    63045   99.75%
   4578  3300        0.1739   381       20.0000        0.0500    63063   99.75%
   4579  3301        0.3066   406       20.0000        0.0500    63143   99.75%
   4581  3303        0.5580   393       20.0000        0.0500    63151   99.75%
   4582  3304        0.1781   380       20.0000        0.0500    63152   99.75%
   4583  3305        0.5009   400       20.0000        0.0500    63156   99.75%
   4585  3307        0.5617   392       20.0000        0.0500    63160   99.75%
   4586  3308        0.1828   379       20.0000        0.0500    63161   99.75%
Elapsed time = 4.81 sec. (3364.63 ticks, tree = 2.83 MB)
   7414  6136        0.0889   384       20.0000        0.0500    98959   99.75%
   7455  6177        0.0889   382       20.0000        0.0500    99852   99.75%
   7456  6178        0.2580   241       20.0000        0.0500    99856   99.75%
   7457  6179        0.5270   381       20.0000        0.0500    99990   99.75%
   7458  6180        2.0185   286       20.0000        0.0500   100036   99.75%
   7459  6181        0.0890   381       20.0000        0.0500   100038   99.75%
   7460  6182        0.2775   299       20.0000        0.0500   100194   99.75%
   7461  6183        0.5408   380       20.0000        0.0500   100195   99.75%
   7462  6184        2.0080   289       20.0000        0.0500   100245   99.75%
   7463  6185        0.0893   380       20.0000        0.0500   100247   99.75%
Elapsed time = 6.78 sec. (4363.27 ticks, tree = 5.08 MB)
  10625  9333        1.7397   341       20.0000        0.0500   140792   99.75%
  10629  9337        1.6876   324       20.0000        0.0500   140798   99.75%
  10633  9341        1.6876   323       20.0000        0.0500   140804   99.75%
  10637  9345        1.6877   322       20.0000        0.0500   140829   99.75%
  10641  9349        1.6877   321       20.0000        0.0500   140893   99.75%
  10645  9353        1.6878   320       20.0000        0.0500   140897   99.75%
  10648  9356        0.1000   277       20.0000        0.0500   141093   99.75%
  10649  9357        1.6880   319       20.0000        0.0500   141094   99.75%
  10652  9360        0.1000   276       20.0000        0.0500   141099   99.75%
  10653  9361        1.6881   318       20.0000        0.0500   141100   99.75%
Elapsed time = 8.52 sec. (5321.08 ticks, tree = 7.61 MB)
* 13265+11969                           19.0000        0.0500            99.74%
Found incumbent of value 19.000000 after 10.02 sec. (6213.51 ticks)
  18573 17235        0.9466   325       19.0000        0.0500   217920   99.74%
  18574 17236        2.0444   311       19.0000        0.0500   217927   99.74%
  18576 17238        0.5578   311       19.0000        0.0500   217932   99.74%
  18577 17239        0.9885   324       19.0000        0.0500   217933   99.74%
  18578 17240        2.0944   307       19.0000        0.0500   217935   99.74%
  18580 17242        0.5800   310       19.0000        0.0500   217939   99.74%
  18581 17243        1.0425   323       19.0000        0.0500   217940   99.74%
  18582 17244        2.0944   308       19.0000        0.0500   217942   99.74%
  18584 17246        0.6078   307       19.0000        0.0500   217947   99.74%
  18585 17247        1.1848   322       19.0000        0.0500   217950   99.74%
Elapsed time = 11.66 sec. (7168.25 ticks, tree = 13.44 MB)

<BREAK> (cplex)

GUB cover cuts applied:  5
Clique cuts applied:  7
Cover cuts applied:  1
Flow cuts applied:  1
Mixed integer rounding cuts applied:  4
Zero-half cuts applied:  1
Gomory fractional cuts applied:  14

Root node processing (before b&c):
  Real time             =    0.52 sec. (314.52 ticks)
Parallel b&c, 4 threads:
  Real time             =   11.95 sec. (7313.61 ticks)
  Sync time (average)   =    1.22 sec.
  Wait time (average)   =    1.24 sec.
                          ------------
Total (root+branch&cut) =   12.47 sec. (7628.13 ticks)
CPLEX 12.6.2.0: aborted, integer solution exists; objective 19
240458 MIP simplex iterations
21143 branch-and-bound nodes
absmipgap = 18.95, relmipgap = 0.997368
No basis.
CB :=
1 2   1
1 3   1
1 